
The Gurobi software has a limited number of licenses. To request a license or
licenses, add this line

    #SBATCH --licenses=gurobi@slurmdb:1

to your SBATCH script, replacing N with the number of licenses you need. Gurobi
will need one license per process.



Starting CP-SAT solver v9.12.4544
Parameters: log_search_progress: true num_search_workers: 8

Initial satisfaction model '': (model_fingerprint: 0x4a459f20827d4854)
#Variables: 3'601'239
  - 3'601'239 Booleans in [0,1]
#kBoolAnd: 3'392'025 (#enforced: 3'392'025) (#literals: 10'176'075)
#kBoolOr: 1 (#literals: 375)
#kLinear1: 6'784'229 (#enforced: 6'784'215)
#kLinear2: 1'813'750 (#enforced: 1'950)
#kLinear3: 3'500 (#enforced: 3'150)
#kLinearN: 430'095 (#enforced: 203'910) (#terms: 5'192'460)

Starting presolve at 2.04s
  1.92e+00s  0.00e+00d  [DetectDominanceRelations] 
  2.34e+01s  0.00e+00d  [PresolveToFixPoint] #num_loops=3 #num_dual_strengthening=2 
  1.25e-01s  0.00e+00d  [ExtractEncodingFromLinear] #potential_supersets=10 
  4.81e-01s  0.00e+00d  [DetectDuplicateColumns] 
  2.03e+00s  0.00e+00d  [DetectDuplicateConstraints] 
[Symmetry] Problem too large. Skipping. You can use symmetry_level:3 or more to force it.
[SAT presolve] num removable Booleans: 3600685 / 3601060
[SAT presolve] num trivial clauses: 0
[SAT presolve] [0s] clauses:9031892 literals:22609284 vars:3601060 one_side_vars:0 simple_definition:3392054 singleton_clauses:0
[SAT presolve] [4.03107s] clauses:9031878 literals:22609191 vars:3601060 one_side_vars:0 simple_definition:3392054 singleton_clauses:0
[SAT presolve] [5.72687s] clauses:9030191 literals:22605839 vars:3600638 one_side_vars:0 simple_definition:3392025 singleton_clauses:0
  4.18e-01s  0.00e+00d  [DetectDuplicateConstraintsWithDifferentEnforcements] #without_enforcements=7'059 
  7.54e+00s  1.03e+00d *[Probe] #probed=60 #fixed_bools=1'793'210 #equiv=38'622 #new_binary_clauses=83'598 
/var/spool/slurmd.spool/job24647122/slurm_script: line 24: 3190535 Killed                  /sw/pkgs/arc/python3.10-anaconda/2023.03/bin/python /home/lemonkey/idQ/py/idQ_expr.py "$J" "$K" "$N" "$p" "$SEED" "$solver"
slurmstepd: error: Detected 1 oom_kill event in StepId=24647122.batch. Some of the step tasks have been OOM Killed.
